CMPL model generation - running

CMPL version: 1.11.0
Authors: Thomas Schleiff, Mike Steglich
Distributed under the GPLv3 

create model instance ...
write model instance ...
CMPL model generation - finished

Solver - running


Welcome to IBM(R) ILOG(R) CPLEX(R) Interactive Optimizer 12.7.1.0
  with Simplex, Mixed Integer & Barrier Optimizers
5725-A06 5725-A29 5724-Y48 5724-Y49 5724-Y54 5724-Y55 5655-Y21
Copyright IBM Corp. 1988, 2017.  All Rights Reserved.

Type 'help' for a list of available commands.
Type 'help' followed by a command name for more
information on commands.

CPLEX> Specified objective sense: MINIMIZE
Selected objective  name:  line[1]
Selected RHS        name:  RHS
Selected bound      name:  BOUND
Problem '/tmp/cmpl.T24777.mps' read.
Read time = 0.07 sec. (8.20 ticks)
CPLEX> CPXPARAM_Read_APIEncoding                        "UTF-8"
Tried aggregator 3 times.
MIP Presolve eliminated 18912 rows and 30062 columns.
MIP Presolve modified 340 coefficients.
Aggregator did 898 substitutions.
Reduced MIP has 2545 rows, 3633 columns, and 10595 nonzeros.
Reduced MIP has 3465 binaries, 0 generals, 0 SOSs, and 0 indicators.
Presolve time = 0.06 sec. (41.22 ticks)
Found incumbent of value 2609.911964 after 0.12 sec. (76.47 ticks)
Probing time = 0.01 sec. (2.72 ticks)
Tried aggregator 1 time.
MIP Presolve eliminated 0 rows and 5 columns.
Reduced MIP has 2545 rows, 3628 columns, and 10585 nonzeros.
Reduced MIP has 3628 binaries, 0 generals, 0 SOSs, and 0 indicators.
Presolve time = 0.01 sec. (8.79 ticks)
Probing time = 0.01 sec. (2.79 ticks)
Clique table members: 3586.
MIP emphasis: balance optimality and feasibility.
MIP search method: dynamic search.
Parallel mode: none, using 1 thread.
Root relaxation solution time = 0.01 sec. (10.62 ticks)

        Nodes                                         Cuts/
   Node  Left     Objective  IInf  Best Integer    Best Bound    ItCnt     Gap

*     0+    0                         2609.9120       -5.9867           100.23%
*     0     0      integral     0      742.3245      742.3245      582    0.00%
Elapsed time = 0.18 sec. (108.85 ticks, tree = 0.00 MB, solutions = 2)

Root node processing (before b&c):
  Real time             =    0.18 sec. (110.15 ticks)
Sequential b&c:
  Real time             =    0.00 sec. (0.00 ticks)
                          ------------
Total (root+branch&cut) =    0.18 sec. (110.15 ticks)

Solution pool: 2 solutions saved.

MIP - Integer optimal solution:  Objective =  7.4232454900e+02
Solution time =    0.18 sec.  Iterations = 582  Nodes = 0
Deterministic time = 110.24 ticks  (606.65 ticks/sec)

CPLEX> Incumbent solution written to file '/tmp/cmpl.T24777.gsol'.
CPLEX> 
CMPL: Time used for model generation: 1 seconds
CMPL: Time used for solving the model: 1 seconds


Solution written to ASCII file: results/output_generated_conf_0.9/2016-01-04-4/fair-nonlinear.sol

Solver - finished
